data;
param nombreJob := 6;
param nombreRessource := 3;
param duree := 1 10 2 3 3 2 4 3 5 4 6 4;
param capaciteRessource := 1 7 2 8 3 14;
param besoinRessource : 1 2 3 :=
                    1   2 6 3
                    2   1 4 1
                    3   4 5 5
                    4   1 4 2
                    5   4 1 1
                    6   2 6 3;
end;

